c WARNING: for repeatability, setting FPU to use double precision
d VARIABLES            191848       
d CONSTRAINTS          881649       
c ============================[ Problem Statistics ]=============================
c |                                                                             |
c |  Number of variables:        191848                                         |
c |  Number of clauses:          881649                                         |
c |  Parse time:                   0.15 s                                       |
c |                                                                             |
c ============================[ Search Statistics ]==============================
c | Conflicts |          ORIGINAL         |          LEARNT          | Progress |
c |           |    Vars  Clauses Literals |    Limit  Clauses Lit/Cl |          |
c ===============================================================================
c |       100 |  170683   821749  1985614 |   301307      100      7 | 11.032 % |
c |       250 |  170683   821749  1985614 |   331438      250     34 | 11.032 % |
c |       475 |  170683   821749  1985614 |   364582      475     42 | 11.032 % |
c |       812 |  170683   821749  1985614 |   401040      812     55 | 11.032 % |
c |      1318 |  170683   821749  1985614 |   441144     1318     92 | 11.032 % |
c |      2077 |  170683   821749  1985614 |   485259     2077     82 | 11.032 % |
c |      3216 |  170683   821749  1985614 |   533785     3216     93 | 11.032 % |
c |      4924 |  170683   821749  1985614 |   587163     4924     86 | 11.032 % |
c |      7486 |  170683   821749  1985614 |   645880     7486     93 | 11.032 % |
c |     11330 |  170683   821749  1985614 |   710468    11330    114 | 11.032 % |
c |     17096 |  170683   821749  1985614 |   781515    17096    127 | 11.032 % |
c |     25745 |  170683   821749  1985614 |   859666    25745    135 | 11.032 % |
c |     38719 |  170683   821749  1985614 |   945633    38719    130 | 11.032 % |
c |     58180 |  170683   821749  1985614 |  1040196    58180    131 | 11.032 % |
c |     87372 |  170683   821749  1985614 |  1144216    87372    145 | 11.032 % |
c |    131161 |  170683   821749  1985614 |  1258638   131161    158 | 11.032 % |
c |    196845 |  170683   821749  1985614 |  1384501   196845    162 | 11.032 % |
c |    295371 |  170683   821749  1985614 |  1522952   295371    177 | 11.032 % |
c |    443160 |  170683   821749  1985614 |  1675247   443160    179 | 11.032 % |
c |    664843 |  170683   821749  1985614 |  1842772   664843    183 | 11.032 % |
c ===============================================================================
c restarts              : 1507
c conflicts             : 688871         (1229 /sec)
c decisions             : 2632478        (0.00 % random) (4695 /sec)
c propagations          : 1687484319     (3009909 /sec)
c conflict literals     : 125421327      (27.42 % deleted)
d RESTARTS             1507
d FAILURES             688871       
d NODES                2632478      
d BACKTRACKS           2632478      
d PROPAGATIONS         1687484319   
d NOGOODSIZE           182.07 
d MEMORY               648.00 
d TIME                 560.643 

s SATISFIABLE
